data;

set I := jboss db;
set J := vm1 vm2;

param c :=
  jboss 3
  db 1;

param m :=
  jboss 1
  db 3;

param c_max :=
  vm1 2
  vm2 2
  ;

param m_max :=
  vm1 2
  vm2 2
  ;

# param p :=
#   vm1 100
#   vm2 100
#   vm3 300
#   vm4 300;
